language Essence 1.3

letting class be function(1 --> 1, 2 --> 1, 3 --> 1, 4 --> 1)
letting deck_length be 15
letting deck_width be 49
letting length be function(1 --> 13, 2 --> 15, 3 --> 4, 4 --> 5)
letting n_classes be 1
letting n_containers be 4
letting separation be function()
letting width be function(1 --> 1, 2 --> 13, 3 --> 18, 4 --> 7)
